94
10
0 10 12 13 16 17 19 21 24 26 28 30 31 33 34 35 37 39 40 41 43 44 46 50 52 55 56 57 58 60 61 62 65 66 67 68 69 70 71 72 73 74 77 78 80 81 84 85 86 90 91 92
1 10 11 14 16 17 19 20 21 23 24 25 26 28 30 31 33 35 36 39 41 42 43 46 47 48 50 52 55 56 57 58 60 61 62 63 65 66 67 68 69 70 71 76 77 80 85 90 91 92
2 10 11 13 15 16 18 19 20 24 26 27 28 32 33 35 37 39 40 41 43 44 46 48 50 51 53 54 56 57 60 61 63 67 68 69 72 76 77 78 84 86 88 90 91 92
3 10 11 12 13 17 19 20 23 24 26 27 30 31 36 37 38 39 40 41 42 43 44 45 47 49 50 51 52 53 55 60 61 66 67 68 70 71 77 79 80 85 87 88 89 90
4 13 19 20 21 22 23 25 26 27 31 35 37 38 42 44 45 47 49 50 52 55 56 60 61 63 68 69 70 72 74 75 78 80 82 86 87 88 93
5 10 12 20 25 31 36 37 38 40 41 42 44 45 47 49 51 52 53 57 58 59 60 62 63 66 67 69 70 74 75 76 77 78 80 85 90
6 13 20 25 29 33 35 42 45 46 48 49 53 55 57 58 66 68 78 81 84 91 92 93
7 10 16 18 21 25 27 28 37 39 40 43 45 46 47 49 54 56 60 73 74 75 76 78 80 83 86 87 89 90 91 93
8 11 14 17 22 23 26 27 28 40 51 57 64 69 71 72 77 80 81
9 17 18 29 35 38 48 52 56 66 69 79 87 89 91
